c description: Random 3-CNF over 8 variables and 4 clauses
c generator: CNFgen (0.9.2)
c copyright: (C) 2012-2022 Massimo Lauria <massimo.lauria@uniroma1.it>
c url: https://massimolauria.net/cnfgen
c command line: cnfgen randkcnf 3 8 4
c
p cnf 8 4
1 4 -7 0
2 3 5 0
3 5 -8 0
2 -3 7 0
